&bands
     prefix='MgO', outdir='./tmp', filband = 'MgO_bands.dat', lsym=.false.
/
