&CONTROL
    calculation = 'bands'
          title = 'MgO'
   restart_mode = 'from_scratch'
         outdir = './tmp'
     pseudo_dir = '/opt/espresso-5.3.0/pseudo/US_v1.5/'
         prefix = 'MgO'
      verbosity = 'default'
/
&SYSTEM
                       ibrav = 0
                         nat = 2
                        ntyp = 2
                        nbnd  = 11 
                     ecutwfc = 60
                     ecutrho = 480
/

&ELECTRONS
/

ATOMIC_SPECIES
Mg   24.3050000000  mg_pbe_v1.4.uspp.F.UPF
O   15.9994000000  o_pbe_v1.2.uspp.F.UPF

ATOMIC_POSITIONS angstrom
Mg       0.0000000000     0.0000000000     0.0000000000
O        2.1060699907     0.0000000000     0.0000000000

K_POINTS crystal
261
    0.0000000000     0.0000000000     0.0000000000 1
    0.0086206897     0.0000000000     0.0086206897 1
    0.0172413793     0.0000000000     0.0172413793 1
    0.0258620690     0.0000000000     0.0258620690 1
    0.0344827586     0.0000000000     0.0344827586 1
    0.0431034483     0.0000000000     0.0431034483 1
    0.0517241379     0.0000000000     0.0517241379 1
    0.0603448276     0.0000000000     0.0603448276 1
    0.0689655172     0.0000000000     0.0689655172 1
    0.0775862069     0.0000000000     0.0775862069 1
    0.0862068966     0.0000000000     0.0862068966 1
    0.0948275862     0.0000000000     0.0948275862 1
    0.1034482759     0.0000000000     0.1034482759 1
    0.1120689655     0.0000000000     0.1120689655 1
    0.1206896552     0.0000000000     0.1206896552 1
    0.1293103448     0.0000000000     0.1293103448 1
    0.1379310345     0.0000000000     0.1379310345 1
    0.1465517241     0.0000000000     0.1465517241 1
    0.1551724138     0.0000000000     0.1551724138 1
    0.1637931034     0.0000000000     0.1637931034 1
    0.1724137931     0.0000000000     0.1724137931 1
    0.1810344828     0.0000000000     0.1810344828 1
    0.1896551724     0.0000000000     0.1896551724 1
    0.1982758621     0.0000000000     0.1982758621 1
    0.2068965517     0.0000000000     0.2068965517 1
    0.2155172414     0.0000000000     0.2155172414 1
    0.2241379310     0.0000000000     0.2241379310 1
    0.2327586207     0.0000000000     0.2327586207 1
    0.2413793103     0.0000000000     0.2413793103 1
    0.2500000000     0.0000000000     0.2500000000 1
    0.2586206897     0.0000000000     0.2586206897 1
    0.2672413793     0.0000000000     0.2672413793 1
    0.2758620690     0.0000000000     0.2758620690 1
    0.2844827586     0.0000000000     0.2844827586 1
    0.2931034483     0.0000000000     0.2931034483 1
    0.3017241379     0.0000000000     0.3017241379 1
    0.3103448276     0.0000000000     0.3103448276 1
    0.3189655172     0.0000000000     0.3189655172 1
    0.3275862069     0.0000000000     0.3275862069 1
    0.3362068966     0.0000000000     0.3362068966 1
    0.3448275862     0.0000000000     0.3448275862 1
    0.3534482759     0.0000000000     0.3534482759 1
    0.3620689655     0.0000000000     0.3620689655 1
    0.3706896552     0.0000000000     0.3706896552 1
    0.3793103448     0.0000000000     0.3793103448 1
    0.3879310345     0.0000000000     0.3879310345 1
    0.3965517241     0.0000000000     0.3965517241 1
    0.4051724138     0.0000000000     0.4051724138 1
    0.4137931034     0.0000000000     0.4137931034 1
    0.4224137931     0.0000000000     0.4224137931 1
    0.4310344828     0.0000000000     0.4310344828 1
    0.4396551724     0.0000000000     0.4396551724 1
    0.4482758621     0.0000000000     0.4482758621 1
    0.4568965517     0.0000000000     0.4568965517 1
    0.4655172414     0.0000000000     0.4655172414 1
    0.4741379310     0.0000000000     0.4741379310 1
    0.4827586207     0.0000000000     0.4827586207 1
    0.4913793103     0.0000000000     0.4913793103 1
    0.5000000000     0.0000000000     0.5000000000 1
    0.5062500000     0.0125000000     0.5062500000 1
    0.5125000000     0.0250000000     0.5125000000 1
    0.5187500000     0.0375000000     0.5187500000 1
    0.5250000000     0.0500000000     0.5250000000 1
    0.5312500000     0.0625000000     0.5312500000 1
    0.5375000000     0.0750000000     0.5375000000 1
    0.5437500000     0.0875000000     0.5437500000 1
    0.5500000000     0.1000000000     0.5500000000 1
    0.5562500000     0.1125000000     0.5562500000 1
    0.5625000000     0.1250000000     0.5625000000 1
    0.5687500000     0.1375000000     0.5687500000 1
    0.5750000000     0.1500000000     0.5750000000 1
    0.5812500000     0.1625000000     0.5812500000 1
    0.5875000000     0.1750000000     0.5875000000 1
    0.5937500000     0.1875000000     0.5937500000 1
    0.6000000000     0.2000000000     0.6000000000 1
    0.6062500000     0.2125000000     0.6062500000 1
    0.6125000000     0.2250000000     0.6125000000 1
    0.6187500000     0.2375000000     0.6187500000 1
    0.6250000000     0.2500000000     0.6250000000 1
    0.3750000000     0.3750000000     0.7500000000 1
    0.3689516129     0.3689516129     0.7379032258 1
    0.3629032258     0.3629032258     0.7258064516 1
    0.3568548387     0.3568548387     0.7137096774 1
    0.3508064516     0.3508064516     0.7016129032 1
    0.3447580645     0.3447580645     0.6895161290 1
    0.3387096774     0.3387096774     0.6774193548 1
    0.3326612903     0.3326612903     0.6653225806 1
    0.3266129032     0.3266129032     0.6532258065 1
    0.3205645161     0.3205645161     0.6411290323 1
    0.3145161290     0.3145161290     0.6290322581 1
    0.3084677419     0.3084677419     0.6169354839 1
    0.3024193548     0.3024193548     0.6048387097 1
    0.2963709677     0.2963709677     0.5927419355 1
    0.2903225806     0.2903225806     0.5806451613 1
    0.2842741935     0.2842741935     0.5685483871 1
    0.2782258065     0.2782258065     0.5564516129 1
    0.2721774194     0.2721774194     0.5443548387 1
    0.2661290323     0.2661290323     0.5322580645 1
    0.2600806452     0.2600806452     0.5201612903 1
    0.2540322581     0.2540322581     0.5080645161 1
    0.2479838710     0.2479838710     0.4959677419 1
    0.2419354839     0.2419354839     0.4838709677 1
    0.2358870968     0.2358870968     0.4717741935 1
    0.2298387097     0.2298387097     0.4596774194 1
    0.2237903226     0.2237903226     0.4475806452 1
    0.2177419355     0.2177419355     0.4354838710 1
    0.2116935484     0.2116935484     0.4233870968 1
    0.2056451613     0.2056451613     0.4112903226 1
    0.1995967742     0.1995967742     0.3991935484 1
    0.1935483871     0.1935483871     0.3870967742 1
    0.1875000000     0.1875000000     0.3750000000 1
    0.1814516129     0.1814516129     0.3629032258 1
    0.1754032258     0.1754032258     0.3508064516 1
    0.1693548387     0.1693548387     0.3387096774 1
    0.1633064516     0.1633064516     0.3266129032 1
    0.1572580645     0.1572580645     0.3145161290 1
    0.1512096774     0.1512096774     0.3024193548 1
    0.1451612903     0.1451612903     0.2903225806 1
    0.1391129032     0.1391129032     0.2782258065 1
    0.1330645161     0.1330645161     0.2661290323 1
    0.1270161290     0.1270161290     0.2540322581 1
    0.1209677419     0.1209677419     0.2419354839 1
    0.1149193548     0.1149193548     0.2298387097 1
    0.1088709677     0.1088709677     0.2177419355 1
    0.1028225806     0.1028225806     0.2056451613 1
    0.0967741935     0.0967741935     0.1935483871 1
    0.0907258065     0.0907258065     0.1814516129 1
    0.0846774194     0.0846774194     0.1693548387 1
    0.0786290323     0.0786290323     0.1572580645 1
    0.0725806452     0.0725806452     0.1451612903 1
    0.0665322581     0.0665322581     0.1330645161 1
    0.0604838710     0.0604838710     0.1209677419 1
    0.0544354839     0.0544354839     0.1088709677 1
    0.0483870968     0.0483870968     0.0967741935 1
    0.0423387097     0.0423387097     0.0846774194 1
    0.0362903226     0.0362903226     0.0725806452 1
    0.0302419355     0.0302419355     0.0604838710 1
    0.0241935484     0.0241935484     0.0483870968 1
    0.0181451613     0.0181451613     0.0362903226 1
    0.0120967742     0.0120967742     0.0241935484 1
    0.0060483871     0.0060483871     0.0120967742 1
    0.0000000000     0.0000000000     0.0000000000 1
    0.0100000000     0.0100000000     0.0100000000 1
    0.0200000000     0.0200000000     0.0200000000 1
    0.0300000000     0.0300000000     0.0300000000 1
    0.0400000000     0.0400000000     0.0400000000 1
    0.0500000000     0.0500000000     0.0500000000 1
    0.0600000000     0.0600000000     0.0600000000 1
    0.0700000000     0.0700000000     0.0700000000 1
    0.0800000000     0.0800000000     0.0800000000 1
    0.0900000000     0.0900000000     0.0900000000 1
    0.1000000000     0.1000000000     0.1000000000 1
    0.1100000000     0.1100000000     0.1100000000 1
    0.1200000000     0.1200000000     0.1200000000 1
    0.1300000000     0.1300000000     0.1300000000 1
    0.1400000000     0.1400000000     0.1400000000 1
    0.1500000000     0.1500000000     0.1500000000 1
    0.1600000000     0.1600000000     0.1600000000 1
    0.1700000000     0.1700000000     0.1700000000 1
    0.1800000000     0.1800000000     0.1800000000 1
    0.1900000000     0.1900000000     0.1900000000 1
    0.2000000000     0.2000000000     0.2000000000 1
    0.2100000000     0.2100000000     0.2100000000 1
    0.2200000000     0.2200000000     0.2200000000 1
    0.2300000000     0.2300000000     0.2300000000 1
    0.2400000000     0.2400000000     0.2400000000 1
    0.2500000000     0.2500000000     0.2500000000 1
    0.2600000000     0.2600000000     0.2600000000 1
    0.2700000000     0.2700000000     0.2700000000 1
    0.2800000000     0.2800000000     0.2800000000 1
    0.2900000000     0.2900000000     0.2900000000 1
    0.3000000000     0.3000000000     0.3000000000 1
    0.3100000000     0.3100000000     0.3100000000 1
    0.3200000000     0.3200000000     0.3200000000 1
    0.3300000000     0.3300000000     0.3300000000 1
    0.3400000000     0.3400000000     0.3400000000 1
    0.3500000000     0.3500000000     0.3500000000 1
    0.3600000000     0.3600000000     0.3600000000 1
    0.3700000000     0.3700000000     0.3700000000 1
    0.3800000000     0.3800000000     0.3800000000 1
    0.3900000000     0.3900000000     0.3900000000 1
    0.4000000000     0.4000000000     0.4000000000 1
    0.4100000000     0.4100000000     0.4100000000 1
    0.4200000000     0.4200000000     0.4200000000 1
    0.4300000000     0.4300000000     0.4300000000 1
    0.4400000000     0.4400000000     0.4400000000 1
    0.4500000000     0.4500000000     0.4500000000 1
    0.4600000000     0.4600000000     0.4600000000 1
    0.4700000000     0.4700000000     0.4700000000 1
    0.4800000000     0.4800000000     0.4800000000 1
    0.4900000000     0.4900000000     0.4900000000 1
    0.5000000000     0.5000000000     0.5000000000 1
    0.5000000000     0.4939024390     0.5060975610 1
    0.5000000000     0.4878048780     0.5121951220 1
    0.5000000000     0.4817073171     0.5182926829 1
    0.5000000000     0.4756097561     0.5243902439 1
    0.5000000000     0.4695121951     0.5304878049 1
    0.5000000000     0.4634146341     0.5365853659 1
    0.5000000000     0.4573170732     0.5426829268 1
    0.5000000000     0.4512195122     0.5487804878 1
    0.5000000000     0.4451219512     0.5548780488 1
    0.5000000000     0.4390243902     0.5609756098 1
    0.5000000000     0.4329268293     0.5670731707 1
    0.5000000000     0.4268292683     0.5731707317 1
    0.5000000000     0.4207317073     0.5792682927 1
    0.5000000000     0.4146341463     0.5853658537 1
    0.5000000000     0.4085365854     0.5914634146 1
    0.5000000000     0.4024390244     0.5975609756 1
    0.5000000000     0.3963414634     0.6036585366 1
    0.5000000000     0.3902439024     0.6097560976 1
    0.5000000000     0.3841463415     0.6158536585 1
    0.5000000000     0.3780487805     0.6219512195 1
    0.5000000000     0.3719512195     0.6280487805 1
    0.5000000000     0.3658536585     0.6341463415 1
    0.5000000000     0.3597560976     0.6402439024 1
    0.5000000000     0.3536585366     0.6463414634 1
    0.5000000000     0.3475609756     0.6524390244 1
    0.5000000000     0.3414634146     0.6585365854 1
    0.5000000000     0.3353658537     0.6646341463 1
    0.5000000000     0.3292682927     0.6707317073 1
    0.5000000000     0.3231707317     0.6768292683 1
    0.5000000000     0.3170731707     0.6829268293 1
    0.5000000000     0.3109756098     0.6890243902 1
    0.5000000000     0.3048780488     0.6951219512 1
    0.5000000000     0.2987804878     0.7012195122 1
    0.5000000000     0.2926829268     0.7073170732 1
    0.5000000000     0.2865853659     0.7134146341 1
    0.5000000000     0.2804878049     0.7195121951 1
    0.5000000000     0.2743902439     0.7256097561 1
    0.5000000000     0.2682926829     0.7317073171 1
    0.5000000000     0.2621951220     0.7378048780 1
    0.5000000000     0.2560975610     0.7439024390 1
    0.5000000000     0.2500000000     0.7500000000 1
    0.5000000000     0.2410714286     0.7410714286 1
    0.5000000000     0.2321428571     0.7321428571 1
    0.5000000000     0.2232142857     0.7232142857 1
    0.5000000000     0.2142857143     0.7142857143 1
    0.5000000000     0.2053571429     0.7053571429 1
    0.5000000000     0.1964285714     0.6964285714 1
    0.5000000000     0.1875000000     0.6875000000 1
    0.5000000000     0.1785714286     0.6785714286 1
    0.5000000000     0.1696428571     0.6696428571 1
    0.5000000000     0.1607142857     0.6607142857 1
    0.5000000000     0.1517857143     0.6517857143 1
    0.5000000000     0.1428571429     0.6428571429 1
    0.5000000000     0.1339285714     0.6339285714 1
    0.5000000000     0.1250000000     0.6250000000 1
    0.5000000000     0.1160714286     0.6160714286 1
    0.5000000000     0.1071428571     0.6071428571 1
    0.5000000000     0.0982142857     0.5982142857 1
    0.5000000000     0.0892857143     0.5892857143 1
    0.5000000000     0.0803571429     0.5803571429 1
    0.5000000000     0.0714285714     0.5714285714 1
    0.5000000000     0.0625000000     0.5625000000 1
    0.5000000000     0.0535714286     0.5535714286 1
    0.5000000000     0.0446428571     0.5446428571 1
    0.5000000000     0.0357142857     0.5357142857 1
    0.5000000000     0.0267857143     0.5267857143 1
    0.5000000000     0.0178571429     0.5178571429 1
    0.5000000000     0.0089285714     0.5089285714 1
    0.5000000000     0.0000000000     0.5000000000 1
CELL_PARAMETERS angstrom
    0.0000000000     2.1060699907     2.1060699907
    2.1060699907     0.0000000000     2.1060699907
    2.1060699907     2.1060699907     0.0000000000
